
Gurobi 11.0.3 (linux64) logging started Mon Aug 25 13:10:16 2025

Set parameter LogFile to value "/home/yihong/Coding/OR_SUC/SUC_epstheta_results_bigM100000_thread4/case24_ieee_rts_theta0.1_epsilon0.2_gurobi_seed180000_num_gen100_N_WDR50_load_scaling_factor1_ori_eps_T5quadra_cost_bc1.03.txt"
Set parameter TimeLimit to value 3600
Gurobi Optimizer version 11.0.3 build v11.0.3rc0 (linux64 - "Ubuntu 20.04.6 LTS")

CPU model: AMD EPYC 7532 32-Core Processor, instruction set [SSE2|AVX|AVX2]
Thread count: 64 physical cores, 128 logical processors, using up to 4 threads

Academic license 2399124 - for non-commercial use only - registered to yi___@ed.ac.uk
Optimize a model with 13497 rows, 6251 columns and 483422 nonzeros
Model fingerprint: 0x431e4852
Model has 500 quadratic constraints
Variable types: 5751 continuous, 500 integer (500 binary)
Coefficient statistics:
  Matrix range     [3e-04, 2e+03]
  QMatrix range    [2e-03, 8e-03]
  QLMatrix range   [3e-01, 6e+01]
  Objective range  [1e+00, 1e+00]
  Bounds range     [1e+00, 1e+00]
  RHS range        [1e+00, 8e+03]
Presolve removed 11466 rows and 2831 columns
Presolve time: 0.15s
Presolved: 2031 rows, 3420 columns, 18915 nonzeros
Presolved model has 500 quadratic constraint(s)
Variable types: 2920 continuous, 500 integer (500 binary)

Root relaxation: objective 5.100072e+03, 1506 iterations, 0.03 seconds (0.04 work units)

    Nodes    |    Current Node    |     Objective Bounds      |     Work
 Expl Unexpl |  Obj  Depth IntInf | Incumbent    BestBd   Gap | It/Node Time

     0     0 5100.07241    0    5          - 5100.07241      -     -    0s
     0     0 5870.07025    0  225          - 5870.07025      -     -    0s
     0     0 41200.8322    0  225          - 41200.8322      -     -    0s
     0     0 45134.3197    0  220          - 45134.3197      -     -    0s
     0     0 76421.9933    0  135          - 76421.9933      -     -    0s
     0     0 76448.5049    0  130          - 76448.5049      -     -    0s
     0     0 76491.0636    0   65          - 76491.0636      -     -    0s
     0     0 76493.1600    0   65          - 76493.1600      -     -    0s
     0     0 76493.1600    0   65          - 76493.1600      -     -    0s
H    0     0                    76512.145245 76493.1600  0.02%     -    1s

Cutting planes:
  Gomory: 60
  Implied bound: 209
  MIR: 61
  Flow cover: 246

Explored 1 nodes (5403 simplex iterations) in 1.03 seconds (0.71 work units)
Thread count was 4 (of 128 available processors)

Solution count 1: 76512.1 

Optimal solution found (tolerance 1.00e-03)
Warning: max constraint violation (2.9232e-09) exceeds tolerance
Best objective 7.651214524511e+04, best bound 7.649315996233e+04, gap 0.0248%

Gurobi 11.0.3 (linux64) logging started Mon Aug 25 13:10:18 2025

Set parameter LogFile to value "/home/yihong/Coding/OR_SUC/SUC_epstheta_results_bigM100000_thread4/case24_ieee_rts_theta0.1_epsilon0.2_gurobi_seed180000_num_gen100_N_WDR50_load_scaling_factor1_ori_eps_T5quadra_cost_bc1.03.txt"
Set parameter TimeLimit to value 3600
Gurobi Optimizer version 11.0.3 build v11.0.3rc0 (linux64 - "Ubuntu 20.04.6 LTS")

CPU model: AMD EPYC 7532 32-Core Processor, instruction set [SSE2|AVX|AVX2]
Thread count: 64 physical cores, 128 logical processors, using up to 4 threads

Academic license 2399124 - for non-commercial use only - registered to yi___@ed.ac.uk
Optimize a model with 28707 rows, 6252 columns and 2129551 nonzeros
Model fingerprint: 0x565613fe
Model has 501 quadratic constraints
Variable types: 5752 continuous, 500 integer (500 binary)
Coefficient statistics:
  Matrix range     [3e-04, 2e+03]
  QMatrix range    [2e-03, 5e+01]
  QLMatrix range   [3e-01, 6e+01]
  Objective range  [1e+00, 1e+00]
  Bounds range     [2e-01, 1e+00]
  RHS range        [2e-03, 8e+04]
  QRHS range       [5e+00, 5e+00]
Presolve removed 8573 rows and 2346 columns
Presolve time: 2.12s
Presolved: 20636 rows, 4407 columns, 431272 nonzeros
Presolved model has 500 quadratic constraint(s)
Presolved model has 1 bilinear constraint(s)
Warning: Model contains variables with very large bounds participating
         in product terms.
         Presolve was not able to compute smaller bounds for these variables.
         Consider bounding these variables or reformulating the model.


Solving non-convex MIQCP

Variable types: 3905 continuous, 502 integer (502 binary)

Root simplex log...

Iteration    Objective       Primal Inf.    Dual Inf.      Time
       0    0.0000000e+00   2.121124e+04   0.000000e+00      7s
    2483    0.0000000e+00   0.000000e+00   0.000000e+00      7s

Root relaxation: objective 0.000000e+00, 2483 iterations, 0.50 seconds (1.34 work units)

    Nodes    |    Current Node    |     Objective Bounds      |     Work
 Expl Unexpl |  Obj  Depth IntInf | Incumbent    BestBd   Gap | It/Node Time

     0     0    0.00000    0    1          -    0.00000      -     -    7s
H    0     0                       0.0433869    0.00000   100%     -  749s
H    0     0                       0.0325624    0.01061  67.4%     -  749s
H    0     0                       0.0269384    0.01061  60.6%     -  749s
H    0     0                       0.0269373    0.01061  60.6%     -  749s
H    0     0                       0.0267623    0.01061  60.4%     -  749s
H    0     0                       0.0256141    0.01061  58.6%     -  749s
H    0     0                       0.0256137    0.01061  58.6%     -  749s
H    0     0                       0.0256134    0.01061  58.6%     -  749s
H    0     0                       0.0255612    0.01061  58.5%     -  749s
H    0     0                       0.0255610    0.01061  58.5%     -  749s
H    0     0                       0.0236007    0.01061  55.1%     -  749s
H    0     0                       0.0236004    0.01061  55.1%     -  749s
H    0     0                       0.0236003    0.01061  55.1%     -  749s

Cutting planes:
  Inf proof: 1

Explored 1 nodes (2837 simplex iterations) in 749.98 seconds (323.49 work units)
Thread count was 4 (of 128 available processors)

Solution count 10: 0.0236003 0.0236004 0.0236007 ... 0.0269373

Optimal solution found (tolerance 1.00e-03)
Best objective 2.360025851251e-02, best bound 2.359514853489e-02, gap 0.0217%
